Custom/1978347_21.param
$ LBS instance with n = 21, seed = 1978347
letting cards be [19,9,10,21,4,11,15,18,32,29,40,12,0,16,34,51,7,38,3,26,20]
